c NeuroCodeBench 2.0 CNF formula with verdict Unsat
p cnf 13 65
1 -12 -6 5 -10 -11 -9 0
-1 7 -4 -8 9 13 5 0
1 -12 -6 -5 11 8 -9 7 0
1 -12 -6 5 10 9 11 0
1 -12 6 8 2 -7 0
-1 7 -4 8 10 -6 -13 12 0
1 -12 -6 -5 -11 -10 3 4 0
1 12 8 -4 0
1 -12 -6 5 -10 -11 9 0
1 -12 6 8 -2 13 -5 0
1 12 -8 -7 0
1 -12 -6 -5 -11 10 13 0
1 -12 -6 -5 11 8 9 -3 0
-1 -7 -11 -2 -8 5 0
1 12 8 4 -7 0
1 -12 -6 5 10 9 -11 0
-1 7 4 -9 -13 -12 -10 0
1 -12 -6 -5 11 8 9 3 0
-1 7 -4 -8 9 13 -5 0
-1 -7 -11 -2 8 10 0
1 -12 -6 -5 11 -8 3 -4 0
1 -12 -6 5 -10 11 0
-1 -7 -11 2 9 0
-1 7 -4 -8 -9 13 5 0
-1 7 -4 -8 9 -13 -12 0
-1 7 4 -9 -13 12 0
1 -12 6 -8 -13 0
-1 7 4 -9 13 3 11 0
1 -12 -6 -5 -11 -10 -3 -7 0
1 -12 6 8 2 7 0
-1 -7 11 2 0
-1 -7 -11 -2 -8 -5 0
-1 -7 -11 2 -9 -10 5 0
-1 7 -4 -8 9 -13 12 0
1 -12 -6 -5 11 -8 -3 0
-1 7 4 -9 13 -3 0
1 12 -8 7 0
-1 7 -4 8 10 6 0
-1 7 -4 8 -10 0
1 -12 -6 -5 11 8 -9 -7 0
-1 7 4 -9 13 3 -11 0
1 12 8 4 7 0
1 -12 6 -8 13 -7 -9 0
-1 7 -4 8 10 -6 13 0
1 -12 6 -8 13 7 0
1 -12 -6 -5 -11 -10 3 -4 0
-1 7 -4 -8 -9 13 -5 0
1 -12 -6 -5 -11 10 -13 0
-1 -7 -11 2 -9 10 0
1 -12 -6 -5 11 -8 3 4 0
-1 7 4 -9 -13 -12 10 0
1 -12 6 -8 13 -7 9 0
-1 7 4 9 5 -3 0
-1 7 4 9 5 3 0
-1 -7 -11 2 -9 -10 -5 0
-1 7 -4 -8 -9 -13 -6 0
-1 -7 11 -2 0
-1 7 -4 -8 -9 -13 6 0
1 -12 -6 5 10 -9 0
1 -12 -6 -5 -11 -10 -3 7 0
-1 -7 -11 -2 8 -10 0
1 -12 6 8 -2 13 5 0
-1 7 4 9 -5 0
-1 7 -4 8 10 -6 -13 -12 0
1 -12 6 8 -2 -13 0
